57
150
105	2
104	1
101	1
99	1
98	1
97	2
96	2
95	1
93	2
90	1
89	2
88	2
87	2
86	1
85	1
84	2
83	1
81	2
80	1
79	1
78	1
76	2
74	1
72	1
70	3
69	2
67	1
63	3
61	1
56	4
53	1
52	1
51	1
50	3
49	3
48	2
46	1
45	2
42	1
41	2
40	2
39	1
37	1
36	2
35	2
34	5
33	3
29	2
28	1
27	2
25	1
23	1
22	4
21	3
20	1
19	1
17	3
